(set-info :smt-lib-version 2.6)
(set-logic QF_NIA)
(set-info :source |
 more info in 'N. P. Lopes, L. Aksoy, V. Manquinho, J. Monteiro.
 Optimally Solving the MCM Problem Using Pseudo-Boolean Satisfiability.
 Technical Report RT/43/2010, INESC-ID, Nov. 2010'. |)
(set-info :category "industrial")
(set-info :status unknown)
(declare-fun X4 () Int)
(declare-fun X5 () Int)
(declare-fun X6 () Int)
(declare-fun X7 () Int)
(declare-fun X8 () Int)
(declare-fun X9 () Int)
(declare-fun X10 () Int)
(declare-fun X11 () Int)
(declare-fun S0 () Int)
(declare-fun S1 () Int)
(declare-fun S2 () Int)
(declare-fun S3 () Int)
(declare-fun S4 () Int)
(declare-fun S5 () Int)
(declare-fun S6 () Int)
(declare-fun S7 () Int)
(declare-fun S8 () Int)
(declare-fun S9 () Int)
(declare-fun S10 () Int)
(declare-fun S11 () Int)
(declare-fun S12 () Int)
(declare-fun S13 () Int)
(declare-fun S14 () Int)
(declare-fun S15 () Int)
(define-fun power2 ((x Int)) Bool
  (or (= x 2048) (= x 1024) (= x 512) (= x 256) (= x 128) (= x 64) (= x 32) (= x 16) (= x 8) (= x 4) (= x 2) (= x 1)))
(assert (or
 (= X4 (+ S0 S1))
 (= X4 (- S0 S1))
 (= X4 (+ (* 3 S0) S1))
 (= X4 (- (* 3 S0) S1))
 (= X4 (- S0 (* 3 S1)))
 (= X4 (+ (* 3 S0) (* 3 S1)))
 (= X4 (- (* 3 S0) (* 3 S1)))
 (= X4 (+ (* 3 S0) (* 97 S1)))
 (= X4 (- (* 3 S0) (* 97 S1)))
 (= X4 (- (* 97 S0) (* 3 S1)))
 (= X4 (+ (* 3 S0) (* 49 S1)))
 (= X4 (- (* 3 S0) (* 49 S1)))
 (= X4 (- (* 49 S0) (* 3 S1)))
 (= X4 (+ (* 3 S0) (* 735 S1)))
 (= X4 (- (* 3 S0) (* 735 S1)))
 (= X4 (- (* 735 S0) (* 3 S1)))
 (= X4 (+ (* 97 S0) S1))
 (= X4 (- (* 97 S0) S1))
 (= X4 (- S0 (* 97 S1)))
 (= X4 (+ (* 97 S0) (* 97 S1)))
 (= X4 (- (* 97 S0) (* 97 S1)))
 (= X4 (+ (* 97 S0) (* 49 S1)))
 (= X4 (- (* 97 S0) (* 49 S1)))
 (= X4 (- (* 49 S0) (* 97 S1)))
 (= X4 (+ (* 97 S0) (* 735 S1)))
 (= X4 (- (* 97 S0) (* 735 S1)))
 (= X4 (- (* 735 S0) (* 97 S1)))
 (= X4 (+ (* 49 S0) S1))
 (= X4 (- (* 49 S0) S1))
 (= X4 (- S0 (* 49 S1)))
 (= X4 (+ (* 49 S0) (* 49 S1)))
 (= X4 (- (* 49 S0) (* 49 S1)))
 (= X4 (+ (* 49 S0) (* 735 S1)))
 (= X4 (- (* 49 S0) (* 735 S1)))
 (= X4 (- (* 735 S0) (* 49 S1)))
 (= X4 (+ (* 735 S0) S1))
 (= X4 (- (* 735 S0) S1))
 (= X4 (- S0 (* 735 S1)))
 (= X4 (+ (* 735 S0) (* 735 S1)))
 (= X4 (- (* 735 S0) (* 735 S1)))
))
(assert (and (> X4 0) (< X4 4096) (power2 S0) (power2 S1)))
(assert (or
 (= X5 (+ S2 S3))
 (= X5 (- S2 S3))
 (= X5 (+ (* 3 S2) S3))
 (= X5 (- (* 3 S2) S3))
 (= X5 (- S2 (* 3 S3)))
 (= X5 (+ (* 3 S2) (* 3 S3)))
 (= X5 (- (* 3 S2) (* 3 S3)))
 (= X5 (+ (* 3 S2) (* 97 S3)))
 (= X5 (- (* 3 S2) (* 97 S3)))
 (= X5 (- (* 97 S2) (* 3 S3)))
 (= X5 (+ (* 3 S2) (* 49 S3)))
 (= X5 (- (* 3 S2) (* 49 S3)))
 (= X5 (- (* 49 S2) (* 3 S3)))
 (= X5 (+ (* 3 S2) (* 735 S3)))
 (= X5 (- (* 3 S2) (* 735 S3)))
 (= X5 (- (* 735 S2) (* 3 S3)))
 (= X5 (+ (* 3 S2) (* X4 S3)))
 (= X5 (- (* 3 S2) (* X4 S3)))
 (= X5 (- (* X4 S2) (* 3 S3)))
 (= X5 (+ (* 97 S2) S3))
 (= X5 (- (* 97 S2) S3))
 (= X5 (- S2 (* 97 S3)))
 (= X5 (+ (* 97 S2) (* 97 S3)))
 (= X5 (- (* 97 S2) (* 97 S3)))
 (= X5 (+ (* 97 S2) (* 49 S3)))
 (= X5 (- (* 97 S2) (* 49 S3)))
 (= X5 (- (* 49 S2) (* 97 S3)))
 (= X5 (+ (* 97 S2) (* 735 S3)))
 (= X5 (- (* 97 S2) (* 735 S3)))
 (= X5 (- (* 735 S2) (* 97 S3)))
 (= X5 (+ (* 97 S2) (* X4 S3)))
 (= X5 (- (* 97 S2) (* X4 S3)))
 (= X5 (- (* X4 S2) (* 97 S3)))
 (= X5 (+ (* 49 S2) S3))
 (= X5 (- (* 49 S2) S3))
 (= X5 (- S2 (* 49 S3)))
 (= X5 (+ (* 49 S2) (* 49 S3)))
 (= X5 (- (* 49 S2) (* 49 S3)))
 (= X5 (+ (* 49 S2) (* 735 S3)))
 (= X5 (- (* 49 S2) (* 735 S3)))
 (= X5 (- (* 735 S2) (* 49 S3)))
 (= X5 (+ (* 49 S2) (* X4 S3)))
 (= X5 (- (* 49 S2) (* X4 S3)))
 (= X5 (- (* X4 S2) (* 49 S3)))
 (= X5 (+ (* 735 S2) S3))
 (= X5 (- (* 735 S2) S3))
 (= X5 (- S2 (* 735 S3)))
 (= X5 (+ (* 735 S2) (* 735 S3)))
 (= X5 (- (* 735 S2) (* 735 S3)))
 (= X5 (+ (* 735 S2) (* X4 S3)))
 (= X5 (- (* 735 S2) (* X4 S3)))
 (= X5 (- (* X4 S2) (* 735 S3)))
 (= X5 (+ (* X4 S2) S3))
 (= X5 (- (* X4 S2) S3))
 (= X5 (- S2 (* X4 S3)))
 (= X5 (+ (* X4 S2) (* X4 S3)))
 (= X5 (- (* X4 S2) (* X4 S3)))
))
(assert (and (> X5 0) (< X5 4096) (power2 S2) (power2 S3)))
(assert (or
 (= X6 (+ (* 3 S4) S5))
 (= X6 (- (* 3 S4) S5))
 (= X6 (- S4 (* 3 S5)))
 (= X6 (+ (* 3 S4) (* 3 S5)))
 (= X6 (- (* 3 S4) (* 3 S5)))
 (= X6 (+ (* 3 S4) (* 97 S5)))
 (= X6 (- (* 3 S4) (* 97 S5)))
 (= X6 (- (* 97 S4) (* 3 S5)))
 (= X6 (+ (* 3 S4) (* 49 S5)))
 (= X6 (- (* 3 S4) (* 49 S5)))
 (= X6 (- (* 49 S4) (* 3 S5)))
 (= X6 (+ (* 3 S4) (* 735 S5)))
 (= X6 (- (* 3 S4) (* 735 S5)))
 (= X6 (- (* 735 S4) (* 3 S5)))
 (= X6 (+ (* 3 S4) (* X4 S5)))
 (= X6 (- (* 3 S4) (* X4 S5)))
 (= X6 (- (* X4 S4) (* 3 S5)))
 (= X6 (+ (* 3 S4) (* X5 S5)))
 (= X6 (- (* 3 S4) (* X5 S5)))
 (= X6 (- (* X5 S4) (* 3 S5)))
 (= X6 (+ (* 97 S4) S5))
 (= X6 (- (* 97 S4) S5))
 (= X6 (- S4 (* 97 S5)))
 (= X6 (+ (* 97 S4) (* 97 S5)))
 (= X6 (- (* 97 S4) (* 97 S5)))
 (= X6 (+ (* 97 S4) (* 49 S5)))
 (= X6 (- (* 97 S4) (* 49 S5)))
 (= X6 (- (* 49 S4) (* 97 S5)))
 (= X6 (+ (* 97 S4) (* 735 S5)))
 (= X6 (- (* 97 S4) (* 735 S5)))
 (= X6 (- (* 735 S4) (* 97 S5)))
 (= X6 (+ (* 97 S4) (* X4 S5)))
 (= X6 (- (* 97 S4) (* X4 S5)))
 (= X6 (- (* X4 S4) (* 97 S5)))
 (= X6 (+ (* 97 S4) (* X5 S5)))
 (= X6 (- (* 97 S4) (* X5 S5)))
 (= X6 (- (* X5 S4) (* 97 S5)))
 (= X6 (+ (* 49 S4) S5))
 (= X6 (- (* 49 S4) S5))
 (= X6 (- S4 (* 49 S5)))
 (= X6 (+ (* 49 S4) (* 49 S5)))
 (= X6 (- (* 49 S4) (* 49 S5)))
 (= X6 (+ (* 49 S4) (* 735 S5)))
 (= X6 (- (* 49 S4) (* 735 S5)))
 (= X6 (- (* 735 S4) (* 49 S5)))
 (= X6 (+ (* 49 S4) (* X4 S5)))
 (= X6 (- (* 49 S4) (* X4 S5)))
 (= X6 (- (* X4 S4) (* 49 S5)))
 (= X6 (+ (* 49 S4) (* X5 S5)))
 (= X6 (- (* 49 S4) (* X5 S5)))
 (= X6 (- (* X5 S4) (* 49 S5)))
 (= X6 (+ (* 735 S4) S5))
 (= X6 (- (* 735 S4) S5))
 (= X6 (- S4 (* 735 S5)))
 (= X6 (+ (* 735 S4) (* 735 S5)))
 (= X6 (- (* 735 S4) (* 735 S5)))
 (= X6 (+ (* 735 S4) (* X4 S5)))
 (= X6 (- (* 735 S4) (* X4 S5)))
 (= X6 (- (* X4 S4) (* 735 S5)))
 (= X6 (+ (* 735 S4) (* X5 S5)))
 (= X6 (- (* 735 S4) (* X5 S5)))
 (= X6 (- (* X5 S4) (* 735 S5)))
 (= X6 (+ (* X4 S4) S5))
 (= X6 (- (* X4 S4) S5))
 (= X6 (- S4 (* X4 S5)))
 (= X6 (+ (* X4 S4) (* X4 S5)))
 (= X6 (- (* X4 S4) (* X4 S5)))
 (= X6 (+ (* X4 S4) (* X5 S5)))
 (= X6 (- (* X4 S4) (* X5 S5)))
 (= X6 (- (* X5 S4) (* X4 S5)))
 (= X6 (+ (* X5 S4) S5))
 (= X6 (- (* X5 S4) S5))
 (= X6 (- S4 (* X5 S5)))
 (= X6 (+ (* X5 S4) (* X5 S5)))
 (= X6 (- (* X5 S4) (* X5 S5)))
))
(assert (and (> X6 0) (< X6 4096) (power2 S4) (power2 S5)))
(assert (or
 (= X7 (+ (* 3 S6) S7))
 (= X7 (- (* 3 S6) S7))
 (= X7 (- S6 (* 3 S7)))
 (= X7 (+ (* 3 S6) (* 3 S7)))
 (= X7 (- (* 3 S6) (* 3 S7)))
 (= X7 (+ (* 3 S6) (* 97 S7)))
 (= X7 (- (* 3 S6) (* 97 S7)))
 (= X7 (- (* 97 S6) (* 3 S7)))
 (= X7 (+ (* 3 S6) (* 49 S7)))
 (= X7 (- (* 3 S6) (* 49 S7)))
 (= X7 (- (* 49 S6) (* 3 S7)))
 (= X7 (+ (* 3 S6) (* 735 S7)))
 (= X7 (- (* 3 S6) (* 735 S7)))
 (= X7 (- (* 735 S6) (* 3 S7)))
 (= X7 (+ (* 3 S6) (* X4 S7)))
 (= X7 (- (* 3 S6) (* X4 S7)))
 (= X7 (- (* X4 S6) (* 3 S7)))
 (= X7 (+ (* 3 S6) (* X5 S7)))
 (= X7 (- (* 3 S6) (* X5 S7)))
 (= X7 (- (* X5 S6) (* 3 S7)))
 (= X7 (+ (* 3 S6) (* X6 S7)))
 (= X7 (- (* 3 S6) (* X6 S7)))
 (= X7 (- (* X6 S6) (* 3 S7)))
 (= X7 (+ (* 97 S6) S7))
 (= X7 (- (* 97 S6) S7))
 (= X7 (- S6 (* 97 S7)))
 (= X7 (+ (* 97 S6) (* 97 S7)))
 (= X7 (- (* 97 S6) (* 97 S7)))
 (= X7 (+ (* 97 S6) (* 49 S7)))
 (= X7 (- (* 97 S6) (* 49 S7)))
 (= X7 (- (* 49 S6) (* 97 S7)))
 (= X7 (+ (* 97 S6) (* 735 S7)))
 (= X7 (- (* 97 S6) (* 735 S7)))
 (= X7 (- (* 735 S6) (* 97 S7)))
 (= X7 (+ (* 97 S6) (* X4 S7)))
 (= X7 (- (* 97 S6) (* X4 S7)))
 (= X7 (- (* X4 S6) (* 97 S7)))
 (= X7 (+ (* 97 S6) (* X5 S7)))
 (= X7 (- (* 97 S6) (* X5 S7)))
 (= X7 (- (* X5 S6) (* 97 S7)))
 (= X7 (+ (* 97 S6) (* X6 S7)))
 (= X7 (- (* 97 S6) (* X6 S7)))
 (= X7 (- (* X6 S6) (* 97 S7)))
 (= X7 (+ (* 49 S6) S7))
 (= X7 (- (* 49 S6) S7))
 (= X7 (- S6 (* 49 S7)))
 (= X7 (+ (* 49 S6) (* 49 S7)))
 (= X7 (- (* 49 S6) (* 49 S7)))
 (= X7 (+ (* 49 S6) (* 735 S7)))
 (= X7 (- (* 49 S6) (* 735 S7)))
 (= X7 (- (* 735 S6) (* 49 S7)))
 (= X7 (+ (* 49 S6) (* X4 S7)))
 (= X7 (- (* 49 S6) (* X4 S7)))
 (= X7 (- (* X4 S6) (* 49 S7)))
 (= X7 (+ (* 49 S6) (* X5 S7)))
 (= X7 (- (* 49 S6) (* X5 S7)))
 (= X7 (- (* X5 S6) (* 49 S7)))
 (= X7 (+ (* 49 S6) (* X6 S7)))
 (= X7 (- (* 49 S6) (* X6 S7)))
 (= X7 (- (* X6 S6) (* 49 S7)))
 (= X7 (+ (* 735 S6) S7))
 (= X7 (- (* 735 S6) S7))
 (= X7 (- S6 (* 735 S7)))
 (= X7 (+ (* 735 S6) (* 735 S7)))
 (= X7 (- (* 735 S6) (* 735 S7)))
 (= X7 (+ (* 735 S6) (* X4 S7)))
 (= X7 (- (* 735 S6) (* X4 S7)))
 (= X7 (- (* X4 S6) (* 735 S7)))
 (= X7 (+ (* 735 S6) (* X5 S7)))
 (= X7 (- (* 735 S6) (* X5 S7)))
 (= X7 (- (* X5 S6) (* 735 S7)))
 (= X7 (+ (* 735 S6) (* X6 S7)))
 (= X7 (- (* 735 S6) (* X6 S7)))
 (= X7 (- (* X6 S6) (* 735 S7)))
 (= X7 (+ (* X4 S6) S7))
 (= X7 (- (* X4 S6) S7))
 (= X7 (- S6 (* X4 S7)))
 (= X7 (+ (* X4 S6) (* X4 S7)))
 (= X7 (- (* X4 S6) (* X4 S7)))
 (= X7 (+ (* X4 S6) (* X5 S7)))
 (= X7 (- (* X4 S6) (* X5 S7)))
 (= X7 (- (* X5 S6) (* X4 S7)))
 (= X7 (+ (* X4 S6) (* X6 S7)))
 (= X7 (- (* X4 S6) (* X6 S7)))
 (= X7 (- (* X6 S6) (* X4 S7)))
 (= X7 (+ (* X5 S6) S7))
 (= X7 (- (* X5 S6) S7))
 (= X7 (- S6 (* X5 S7)))
 (= X7 (+ (* X5 S6) (* X5 S7)))
 (= X7 (- (* X5 S6) (* X5 S7)))
 (= X7 (+ (* X5 S6) (* X6 S7)))
 (= X7 (- (* X5 S6) (* X6 S7)))
 (= X7 (- (* X6 S6) (* X5 S7)))
 (= X7 (+ (* X6 S6) S7))
 (= X7 (- (* X6 S6) S7))
 (= X7 (- S6 (* X6 S7)))
 (= X7 (+ (* X6 S6) (* X6 S7)))
 (= X7 (- (* X6 S6) (* X6 S7)))
))
(assert (and (> X7 0) (< X7 4096) (power2 S6) (power2 S7)))
(assert (or
 (= X8 (+ (* 3 S8) S9))
 (= X8 (- (* 3 S8) S9))
 (= X8 (- S8 (* 3 S9)))
 (= X8 (+ (* 3 S8) (* 3 S9)))
 (= X8 (- (* 3 S8) (* 3 S9)))
 (= X8 (+ (* 3 S8) (* 97 S9)))
 (= X8 (- (* 3 S8) (* 97 S9)))
 (= X8 (- (* 97 S8) (* 3 S9)))
 (= X8 (+ (* 3 S8) (* 49 S9)))
 (= X8 (- (* 3 S8) (* 49 S9)))
 (= X8 (- (* 49 S8) (* 3 S9)))
 (= X8 (+ (* 3 S8) (* 735 S9)))
 (= X8 (- (* 3 S8) (* 735 S9)))
 (= X8 (- (* 735 S8) (* 3 S9)))
 (= X8 (+ (* 3 S8) (* X4 S9)))
 (= X8 (- (* 3 S8) (* X4 S9)))
 (= X8 (- (* X4 S8) (* 3 S9)))
 (= X8 (+ (* 3 S8) (* X5 S9)))
 (= X8 (- (* 3 S8) (* X5 S9)))
 (= X8 (- (* X5 S8) (* 3 S9)))
 (= X8 (+ (* 3 S8) (* X6 S9)))
 (= X8 (- (* 3 S8) (* X6 S9)))
 (= X8 (- (* X6 S8) (* 3 S9)))
 (= X8 (+ (* 3 S8) (* X7 S9)))
 (= X8 (- (* 3 S8) (* X7 S9)))
 (= X8 (- (* X7 S8) (* 3 S9)))
 (= X8 (+ (* 97 S8) S9))
 (= X8 (- (* 97 S8) S9))
 (= X8 (- S8 (* 97 S9)))
 (= X8 (+ (* 97 S8) (* 97 S9)))
 (= X8 (- (* 97 S8) (* 97 S9)))
 (= X8 (+ (* 97 S8) (* 49 S9)))
 (= X8 (- (* 97 S8) (* 49 S9)))
 (= X8 (- (* 49 S8) (* 97 S9)))
 (= X8 (+ (* 97 S8) (* 735 S9)))
 (= X8 (- (* 97 S8) (* 735 S9)))
 (= X8 (- (* 735 S8) (* 97 S9)))
 (= X8 (+ (* 97 S8) (* X4 S9)))
 (= X8 (- (* 97 S8) (* X4 S9)))
 (= X8 (- (* X4 S8) (* 97 S9)))
 (= X8 (+ (* 97 S8) (* X5 S9)))
 (= X8 (- (* 97 S8) (* X5 S9)))
 (= X8 (- (* X5 S8) (* 97 S9)))
 (= X8 (+ (* 97 S8) (* X6 S9)))
 (= X8 (- (* 97 S8) (* X6 S9)))
 (= X8 (- (* X6 S8) (* 97 S9)))
 (= X8 (+ (* 97 S8) (* X7 S9)))
 (= X8 (- (* 97 S8) (* X7 S9)))
 (= X8 (- (* X7 S8) (* 97 S9)))
 (= X8 (+ (* 49 S8) S9))
 (= X8 (- (* 49 S8) S9))
 (= X8 (- S8 (* 49 S9)))
 (= X8 (+ (* 49 S8) (* 49 S9)))
 (= X8 (- (* 49 S8) (* 49 S9)))
 (= X8 (+ (* 49 S8) (* 735 S9)))
 (= X8 (- (* 49 S8) (* 735 S9)))
 (= X8 (- (* 735 S8) (* 49 S9)))
 (= X8 (+ (* 49 S8) (* X4 S9)))
 (= X8 (- (* 49 S8) (* X4 S9)))
 (= X8 (- (* X4 S8) (* 49 S9)))
 (= X8 (+ (* 49 S8) (* X5 S9)))
 (= X8 (- (* 49 S8) (* X5 S9)))
 (= X8 (- (* X5 S8) (* 49 S9)))
 (= X8 (+ (* 49 S8) (* X6 S9)))
 (= X8 (- (* 49 S8) (* X6 S9)))
 (= X8 (- (* X6 S8) (* 49 S9)))
 (= X8 (+ (* 49 S8) (* X7 S9)))
 (= X8 (- (* 49 S8) (* X7 S9)))
 (= X8 (- (* X7 S8) (* 49 S9)))
 (= X8 (+ (* 735 S8) S9))
 (= X8 (- (* 735 S8) S9))
 (= X8 (- S8 (* 735 S9)))
 (= X8 (+ (* 735 S8) (* 735 S9)))
 (= X8 (- (* 735 S8) (* 735 S9)))
 (= X8 (+ (* 735 S8) (* X4 S9)))
 (= X8 (- (* 735 S8) (* X4 S9)))
 (= X8 (- (* X4 S8) (* 735 S9)))
 (= X8 (+ (* 735 S8) (* X5 S9)))
 (= X8 (- (* 735 S8) (* X5 S9)))
 (= X8 (- (* X5 S8) (* 735 S9)))
 (= X8 (+ (* 735 S8) (* X6 S9)))
 (= X8 (- (* 735 S8) (* X6 S9)))
 (= X8 (- (* X6 S8) (* 735 S9)))
 (= X8 (+ (* 735 S8) (* X7 S9)))
 (= X8 (- (* 735 S8) (* X7 S9)))
 (= X8 (- (* X7 S8) (* 735 S9)))
 (= X8 (+ (* X4 S8) S9))
 (= X8 (- (* X4 S8) S9))
 (= X8 (- S8 (* X4 S9)))
 (= X8 (+ (* X4 S8) (* X4 S9)))
 (= X8 (- (* X4 S8) (* X4 S9)))
 (= X8 (+ (* X4 S8) (* X5 S9)))
 (= X8 (- (* X4 S8) (* X5 S9)))
 (= X8 (- (* X5 S8) (* X4 S9)))
 (= X8 (+ (* X4 S8) (* X6 S9)))
 (= X8 (- (* X4 S8) (* X6 S9)))
 (= X8 (- (* X6 S8) (* X4 S9)))
 (= X8 (+ (* X4 S8) (* X7 S9)))
 (= X8 (- (* X4 S8) (* X7 S9)))
 (= X8 (- (* X7 S8) (* X4 S9)))
 (= X8 (+ (* X5 S8) S9))
 (= X8 (- (* X5 S8) S9))
 (= X8 (- S8 (* X5 S9)))
 (= X8 (+ (* X5 S8) (* X5 S9)))
 (= X8 (- (* X5 S8) (* X5 S9)))
 (= X8 (+ (* X5 S8) (* X6 S9)))
 (= X8 (- (* X5 S8) (* X6 S9)))
 (= X8 (- (* X6 S8) (* X5 S9)))
 (= X8 (+ (* X5 S8) (* X7 S9)))
 (= X8 (- (* X5 S8) (* X7 S9)))
 (= X8 (- (* X7 S8) (* X5 S9)))
 (= X8 (+ (* X6 S8) S9))
 (= X8 (- (* X6 S8) S9))
 (= X8 (- S8 (* X6 S9)))
 (= X8 (+ (* X6 S8) (* X6 S9)))
 (= X8 (- (* X6 S8) (* X6 S9)))
 (= X8 (+ (* X6 S8) (* X7 S9)))
 (= X8 (- (* X6 S8) (* X7 S9)))
 (= X8 (- (* X7 S8) (* X6 S9)))
 (= X8 (+ (* X7 S8) S9))
 (= X8 (- (* X7 S8) S9))
 (= X8 (- S8 (* X7 S9)))
 (= X8 (+ (* X7 S8) (* X7 S9)))
 (= X8 (- (* X7 S8) (* X7 S9)))
))
(assert (and (> X8 0) (< X8 4096) (power2 S8) (power2 S9)))
(assert (or
 (= X9 (+ (* 3 S10) S11))
 (= X9 (- (* 3 S10) S11))
 (= X9 (- S10 (* 3 S11)))
 (= X9 (+ (* 3 S10) (* 3 S11)))
 (= X9 (- (* 3 S10) (* 3 S11)))
 (= X9 (+ (* 3 S10) (* 97 S11)))
 (= X9 (- (* 3 S10) (* 97 S11)))
 (= X9 (- (* 97 S10) (* 3 S11)))
 (= X9 (+ (* 3 S10) (* 49 S11)))
 (= X9 (- (* 3 S10) (* 49 S11)))
 (= X9 (- (* 49 S10) (* 3 S11)))
 (= X9 (+ (* 3 S10) (* 735 S11)))
 (= X9 (- (* 3 S10) (* 735 S11)))
 (= X9 (- (* 735 S10) (* 3 S11)))
 (= X9 (+ (* 3 S10) (* X4 S11)))
 (= X9 (- (* 3 S10) (* X4 S11)))
 (= X9 (- (* X4 S10) (* 3 S11)))
 (= X9 (+ (* 3 S10) (* X5 S11)))
 (= X9 (- (* 3 S10) (* X5 S11)))
 (= X9 (- (* X5 S10) (* 3 S11)))
 (= X9 (+ (* 3 S10) (* X6 S11)))
 (= X9 (- (* 3 S10) (* X6 S11)))
 (= X9 (- (* X6 S10) (* 3 S11)))
 (= X9 (+ (* 3 S10) (* X7 S11)))
 (= X9 (- (* 3 S10) (* X7 S11)))
 (= X9 (- (* X7 S10) (* 3 S11)))
 (= X9 (+ (* 3 S10) (* X8 S11)))
 (= X9 (- (* 3 S10) (* X8 S11)))
 (= X9 (- (* X8 S10) (* 3 S11)))
 (= X9 (+ (* 97 S10) S11))
 (= X9 (- (* 97 S10) S11))
 (= X9 (- S10 (* 97 S11)))
 (= X9 (+ (* 97 S10) (* 97 S11)))
 (= X9 (- (* 97 S10) (* 97 S11)))
 (= X9 (+ (* 97 S10) (* 49 S11)))
 (= X9 (- (* 97 S10) (* 49 S11)))
 (= X9 (- (* 49 S10) (* 97 S11)))
 (= X9 (+ (* 97 S10) (* 735 S11)))
 (= X9 (- (* 97 S10) (* 735 S11)))
 (= X9 (- (* 735 S10) (* 97 S11)))
 (= X9 (+ (* 97 S10) (* X4 S11)))
 (= X9 (- (* 97 S10) (* X4 S11)))
 (= X9 (- (* X4 S10) (* 97 S11)))
 (= X9 (+ (* 97 S10) (* X5 S11)))
 (= X9 (- (* 97 S10) (* X5 S11)))
 (= X9 (- (* X5 S10) (* 97 S11)))
 (= X9 (+ (* 97 S10) (* X6 S11)))
 (= X9 (- (* 97 S10) (* X6 S11)))
 (= X9 (- (* X6 S10) (* 97 S11)))
 (= X9 (+ (* 97 S10) (* X7 S11)))
 (= X9 (- (* 97 S10) (* X7 S11)))
 (= X9 (- (* X7 S10) (* 97 S11)))
 (= X9 (+ (* 97 S10) (* X8 S11)))
 (= X9 (- (* 97 S10) (* X8 S11)))
 (= X9 (- (* X8 S10) (* 97 S11)))
 (= X9 (+ (* 49 S10) S11))
 (= X9 (- (* 49 S10) S11))
 (= X9 (- S10 (* 49 S11)))
 (= X9 (+ (* 49 S10) (* 49 S11)))
 (= X9 (- (* 49 S10) (* 49 S11)))
 (= X9 (+ (* 49 S10) (* 735 S11)))
 (= X9 (- (* 49 S10) (* 735 S11)))
 (= X9 (- (* 735 S10) (* 49 S11)))
 (= X9 (+ (* 49 S10) (* X4 S11)))
 (= X9 (- (* 49 S10) (* X4 S11)))
 (= X9 (- (* X4 S10) (* 49 S11)))
 (= X9 (+ (* 49 S10) (* X5 S11)))
 (= X9 (- (* 49 S10) (* X5 S11)))
 (= X9 (- (* X5 S10) (* 49 S11)))
 (= X9 (+ (* 49 S10) (* X6 S11)))
 (= X9 (- (* 49 S10) (* X6 S11)))
 (= X9 (- (* X6 S10) (* 49 S11)))
 (= X9 (+ (* 49 S10) (* X7 S11)))
 (= X9 (- (* 49 S10) (* X7 S11)))
 (= X9 (- (* X7 S10) (* 49 S11)))
 (= X9 (+ (* 49 S10) (* X8 S11)))
 (= X9 (- (* 49 S10) (* X8 S11)))
 (= X9 (- (* X8 S10) (* 49 S11)))
 (= X9 (+ (* 735 S10) S11))
 (= X9 (- (* 735 S10) S11))
 (= X9 (- S10 (* 735 S11)))
 (= X9 (+ (* 735 S10) (* 735 S11)))
 (= X9 (- (* 735 S10) (* 735 S11)))
 (= X9 (+ (* 735 S10) (* X4 S11)))
 (= X9 (- (* 735 S10) (* X4 S11)))
 (= X9 (- (* X4 S10) (* 735 S11)))
 (= X9 (+ (* 735 S10) (* X5 S11)))
 (= X9 (- (* 735 S10) (* X5 S11)))
 (= X9 (- (* X5 S10) (* 735 S11)))
 (= X9 (+ (* 735 S10) (* X6 S11)))
 (= X9 (- (* 735 S10) (* X6 S11)))
 (= X9 (- (* X6 S10) (* 735 S11)))
 (= X9 (+ (* 735 S10) (* X7 S11)))
 (= X9 (- (* 735 S10) (* X7 S11)))
 (= X9 (- (* X7 S10) (* 735 S11)))
 (= X9 (+ (* 735 S10) (* X8 S11)))
 (= X9 (- (* 735 S10) (* X8 S11)))
 (= X9 (- (* X8 S10) (* 735 S11)))
 (= X9 (+ (* X4 S10) S11))
 (= X9 (- (* X4 S10) S11))
 (= X9 (- S10 (* X4 S11)))
 (= X9 (+ (* X4 S10) (* X4 S11)))
 (= X9 (- (* X4 S10) (* X4 S11)))
 (= X9 (+ (* X4 S10) (* X5 S11)))
 (= X9 (- (* X4 S10) (* X5 S11)))
 (= X9 (- (* X5 S10) (* X4 S11)))
 (= X9 (+ (* X4 S10) (* X6 S11)))
 (= X9 (- (* X4 S10) (* X6 S11)))
 (= X9 (- (* X6 S10) (* X4 S11)))
 (= X9 (+ (* X4 S10) (* X7 S11)))
 (= X9 (- (* X4 S10) (* X7 S11)))
 (= X9 (- (* X7 S10) (* X4 S11)))
 (= X9 (+ (* X4 S10) (* X8 S11)))
 (= X9 (- (* X4 S10) (* X8 S11)))
 (= X9 (- (* X8 S10) (* X4 S11)))
 (= X9 (+ (* X5 S10) S11))
 (= X9 (- (* X5 S10) S11))
 (= X9 (- S10 (* X5 S11)))
 (= X9 (+ (* X5 S10) (* X5 S11)))
 (= X9 (- (* X5 S10) (* X5 S11)))
 (= X9 (+ (* X5 S10) (* X6 S11)))
 (= X9 (- (* X5 S10) (* X6 S11)))
 (= X9 (- (* X6 S10) (* X5 S11)))
 (= X9 (+ (* X5 S10) (* X7 S11)))
 (= X9 (- (* X5 S10) (* X7 S11)))
 (= X9 (- (* X7 S10) (* X5 S11)))
 (= X9 (+ (* X5 S10) (* X8 S11)))
 (= X9 (- (* X5 S10) (* X8 S11)))
 (= X9 (- (* X8 S10) (* X5 S11)))
 (= X9 (+ (* X6 S10) S11))
 (= X9 (- (* X6 S10) S11))
 (= X9 (- S10 (* X6 S11)))
 (= X9 (+ (* X6 S10) (* X6 S11)))
 (= X9 (- (* X6 S10) (* X6 S11)))
 (= X9 (+ (* X6 S10) (* X7 S11)))
 (= X9 (- (* X6 S10) (* X7 S11)))
 (= X9 (- (* X7 S10) (* X6 S11)))
 (= X9 (+ (* X6 S10) (* X8 S11)))
 (= X9 (- (* X6 S10) (* X8 S11)))
 (= X9 (- (* X8 S10) (* X6 S11)))
 (= X9 (+ (* X7 S10) S11))
 (= X9 (- (* X7 S10) S11))
 (= X9 (- S10 (* X7 S11)))
 (= X9 (+ (* X7 S10) (* X7 S11)))
 (= X9 (- (* X7 S10) (* X7 S11)))
 (= X9 (+ (* X7 S10) (* X8 S11)))
 (= X9 (- (* X7 S10) (* X8 S11)))
 (= X9 (- (* X8 S10) (* X7 S11)))
 (= X9 (+ (* X8 S10) S11))
 (= X9 (- (* X8 S10) S11))
 (= X9 (- S10 (* X8 S11)))
 (= X9 (+ (* X8 S10) (* X8 S11)))
 (= X9 (- (* X8 S10) (* X8 S11)))
))
(assert (and (> X9 0) (< X9 4096) (power2 S10) (power2 S11)))
(assert (or
 (= X10 (+ (* 3 S12) S13))
 (= X10 (- (* 3 S12) S13))
 (= X10 (- S12 (* 3 S13)))
 (= X10 (+ (* 3 S12) (* 3 S13)))
 (= X10 (- (* 3 S12) (* 3 S13)))
 (= X10 (+ (* 3 S12) (* 97 S13)))
 (= X10 (- (* 3 S12) (* 97 S13)))
 (= X10 (- (* 97 S12) (* 3 S13)))
 (= X10 (+ (* 3 S12) (* 49 S13)))
 (= X10 (- (* 3 S12) (* 49 S13)))
 (= X10 (- (* 49 S12) (* 3 S13)))
 (= X10 (+ (* 3 S12) (* 735 S13)))
 (= X10 (- (* 3 S12) (* 735 S13)))
 (= X10 (- (* 735 S12) (* 3 S13)))
 (= X10 (+ (* 3 S12) (* X4 S13)))
 (= X10 (- (* 3 S12) (* X4 S13)))
 (= X10 (- (* X4 S12) (* 3 S13)))
 (= X10 (+ (* 3 S12) (* X5 S13)))
 (= X10 (- (* 3 S12) (* X5 S13)))
 (= X10 (- (* X5 S12) (* 3 S13)))
 (= X10 (+ (* 3 S12) (* X6 S13)))
 (= X10 (- (* 3 S12) (* X6 S13)))
 (= X10 (- (* X6 S12) (* 3 S13)))
 (= X10 (+ (* 3 S12) (* X7 S13)))
 (= X10 (- (* 3 S12) (* X7 S13)))
 (= X10 (- (* X7 S12) (* 3 S13)))
 (= X10 (+ (* 3 S12) (* X8 S13)))
 (= X10 (- (* 3 S12) (* X8 S13)))
 (= X10 (- (* X8 S12) (* 3 S13)))
 (= X10 (+ (* 3 S12) (* X9 S13)))
 (= X10 (- (* 3 S12) (* X9 S13)))
 (= X10 (- (* X9 S12) (* 3 S13)))
 (= X10 (+ (* 97 S12) S13))
 (= X10 (- (* 97 S12) S13))
 (= X10 (- S12 (* 97 S13)))
 (= X10 (+ (* 97 S12) (* 97 S13)))
 (= X10 (- (* 97 S12) (* 97 S13)))
 (= X10 (+ (* 97 S12) (* 49 S13)))
 (= X10 (- (* 97 S12) (* 49 S13)))
 (= X10 (- (* 49 S12) (* 97 S13)))
 (= X10 (+ (* 97 S12) (* 735 S13)))
 (= X10 (- (* 97 S12) (* 735 S13)))
 (= X10 (- (* 735 S12) (* 97 S13)))
 (= X10 (+ (* 97 S12) (* X4 S13)))
 (= X10 (- (* 97 S12) (* X4 S13)))
 (= X10 (- (* X4 S12) (* 97 S13)))
 (= X10 (+ (* 97 S12) (* X5 S13)))
 (= X10 (- (* 97 S12) (* X5 S13)))
 (= X10 (- (* X5 S12) (* 97 S13)))
 (= X10 (+ (* 97 S12) (* X6 S13)))
 (= X10 (- (* 97 S12) (* X6 S13)))
 (= X10 (- (* X6 S12) (* 97 S13)))
 (= X10 (+ (* 97 S12) (* X7 S13)))
 (= X10 (- (* 97 S12) (* X7 S13)))
 (= X10 (- (* X7 S12) (* 97 S13)))
 (= X10 (+ (* 97 S12) (* X8 S13)))
 (= X10 (- (* 97 S12) (* X8 S13)))
 (= X10 (- (* X8 S12) (* 97 S13)))
 (= X10 (+ (* 97 S12) (* X9 S13)))
 (= X10 (- (* 97 S12) (* X9 S13)))
 (= X10 (- (* X9 S12) (* 97 S13)))
 (= X10 (+ (* 49 S12) S13))
 (= X10 (- (* 49 S12) S13))
 (= X10 (- S12 (* 49 S13)))
 (= X10 (+ (* 49 S12) (* 49 S13)))
 (= X10 (- (* 49 S12) (* 49 S13)))
 (= X10 (+ (* 49 S12) (* 735 S13)))
 (= X10 (- (* 49 S12) (* 735 S13)))
 (= X10 (- (* 735 S12) (* 49 S13)))
 (= X10 (+ (* 49 S12) (* X4 S13)))
 (= X10 (- (* 49 S12) (* X4 S13)))
 (= X10 (- (* X4 S12) (* 49 S13)))
 (= X10 (+ (* 49 S12) (* X5 S13)))
 (= X10 (- (* 49 S12) (* X5 S13)))
 (= X10 (- (* X5 S12) (* 49 S13)))
 (= X10 (+ (* 49 S12) (* X6 S13)))
 (= X10 (- (* 49 S12) (* X6 S13)))
 (= X10 (- (* X6 S12) (* 49 S13)))
 (= X10 (+ (* 49 S12) (* X7 S13)))
 (= X10 (- (* 49 S12) (* X7 S13)))
 (= X10 (- (* X7 S12) (* 49 S13)))
 (= X10 (+ (* 49 S12) (* X8 S13)))
 (= X10 (- (* 49 S12) (* X8 S13)))
 (= X10 (- (* X8 S12) (* 49 S13)))
 (= X10 (+ (* 49 S12) (* X9 S13)))
 (= X10 (- (* 49 S12) (* X9 S13)))
 (= X10 (- (* X9 S12) (* 49 S13)))
 (= X10 (+ (* 735 S12) S13))
 (= X10 (- (* 735 S12) S13))
 (= X10 (- S12 (* 735 S13)))
 (= X10 (+ (* 735 S12) (* 735 S13)))
 (= X10 (- (* 735 S12) (* 735 S13)))
 (= X10 (+ (* 735 S12) (* X4 S13)))
 (= X10 (- (* 735 S12) (* X4 S13)))
 (= X10 (- (* X4 S12) (* 735 S13)))
 (= X10 (+ (* 735 S12) (* X5 S13)))
 (= X10 (- (* 735 S12) (* X5 S13)))
 (= X10 (- (* X5 S12) (* 735 S13)))
 (= X10 (+ (* 735 S12) (* X6 S13)))
 (= X10 (- (* 735 S12) (* X6 S13)))
 (= X10 (- (* X6 S12) (* 735 S13)))
 (= X10 (+ (* 735 S12) (* X7 S13)))
 (= X10 (- (* 735 S12) (* X7 S13)))
 (= X10 (- (* X7 S12) (* 735 S13)))
 (= X10 (+ (* 735 S12) (* X8 S13)))
 (= X10 (- (* 735 S12) (* X8 S13)))
 (= X10 (- (* X8 S12) (* 735 S13)))
 (= X10 (+ (* 735 S12) (* X9 S13)))
 (= X10 (- (* 735 S12) (* X9 S13)))
 (= X10 (- (* X9 S12) (* 735 S13)))
 (= X10 (+ (* X4 S12) S13))
 (= X10 (- (* X4 S12) S13))
 (= X10 (- S12 (* X4 S13)))
 (= X10 (+ (* X4 S12) (* X4 S13)))
 (= X10 (- (* X4 S12) (* X4 S13)))
 (= X10 (+ (* X4 S12) (* X5 S13)))
 (= X10 (- (* X4 S12) (* X5 S13)))
 (= X10 (- (* X5 S12) (* X4 S13)))
 (= X10 (+ (* X4 S12) (* X6 S13)))
 (= X10 (- (* X4 S12) (* X6 S13)))
 (= X10 (- (* X6 S12) (* X4 S13)))
 (= X10 (+ (* X4 S12) (* X7 S13)))
 (= X10 (- (* X4 S12) (* X7 S13)))
 (= X10 (- (* X7 S12) (* X4 S13)))
 (= X10 (+ (* X4 S12) (* X8 S13)))
 (= X10 (- (* X4 S12) (* X8 S13)))
 (= X10 (- (* X8 S12) (* X4 S13)))
 (= X10 (+ (* X4 S12) (* X9 S13)))
 (= X10 (- (* X4 S12) (* X9 S13)))
 (= X10 (- (* X9 S12) (* X4 S13)))
 (= X10 (+ (* X5 S12) S13))
 (= X10 (- (* X5 S12) S13))
 (= X10 (- S12 (* X5 S13)))
 (= X10 (+ (* X5 S12) (* X5 S13)))
 (= X10 (- (* X5 S12) (* X5 S13)))
 (= X10 (+ (* X5 S12) (* X6 S13)))
 (= X10 (- (* X5 S12) (* X6 S13)))
 (= X10 (- (* X6 S12) (* X5 S13)))
 (= X10 (+ (* X5 S12) (* X7 S13)))
 (= X10 (- (* X5 S12) (* X7 S13)))
 (= X10 (- (* X7 S12) (* X5 S13)))
 (= X10 (+ (* X5 S12) (* X8 S13)))
 (= X10 (- (* X5 S12) (* X8 S13)))
 (= X10 (- (* X8 S12) (* X5 S13)))
 (= X10 (+ (* X5 S12) (* X9 S13)))
 (= X10 (- (* X5 S12) (* X9 S13)))
 (= X10 (- (* X9 S12) (* X5 S13)))
 (= X10 (+ (* X6 S12) S13))
 (= X10 (- (* X6 S12) S13))
 (= X10 (- S12 (* X6 S13)))
 (= X10 (+ (* X6 S12) (* X6 S13)))
 (= X10 (- (* X6 S12) (* X6 S13)))
 (= X10 (+ (* X6 S12) (* X7 S13)))
 (= X10 (- (* X6 S12) (* X7 S13)))
 (= X10 (- (* X7 S12) (* X6 S13)))
 (= X10 (+ (* X6 S12) (* X8 S13)))
 (= X10 (- (* X6 S12) (* X8 S13)))
 (= X10 (- (* X8 S12) (* X6 S13)))
 (= X10 (+ (* X6 S12) (* X9 S13)))
 (= X10 (- (* X6 S12) (* X9 S13)))
 (= X10 (- (* X9 S12) (* X6 S13)))
 (= X10 (+ (* X7 S12) S13))
 (= X10 (- (* X7 S12) S13))
 (= X10 (- S12 (* X7 S13)))
 (= X10 (+ (* X7 S12) (* X7 S13)))
 (= X10 (- (* X7 S12) (* X7 S13)))
 (= X10 (+ (* X7 S12) (* X8 S13)))
 (= X10 (- (* X7 S12) (* X8 S13)))
 (= X10 (- (* X8 S12) (* X7 S13)))
 (= X10 (+ (* X7 S12) (* X9 S13)))
 (= X10 (- (* X7 S12) (* X9 S13)))
 (= X10 (- (* X9 S12) (* X7 S13)))
 (= X10 (+ (* X8 S12) S13))
 (= X10 (- (* X8 S12) S13))
 (= X10 (- S12 (* X8 S13)))
 (= X10 (+ (* X8 S12) (* X8 S13)))
 (= X10 (- (* X8 S12) (* X8 S13)))
 (= X10 (+ (* X8 S12) (* X9 S13)))
 (= X10 (- (* X8 S12) (* X9 S13)))
 (= X10 (- (* X9 S12) (* X8 S13)))
 (= X10 (+ (* X9 S12) S13))
 (= X10 (- (* X9 S12) S13))
 (= X10 (- S12 (* X9 S13)))
 (= X10 (+ (* X9 S12) (* X9 S13)))
 (= X10 (- (* X9 S12) (* X9 S13)))
))
(assert (and (> X10 0) (< X10 4096) (power2 S12) (power2 S13)))
(assert (or
 (= X11 (+ (* 3 S14) S15))
 (= X11 (- (* 3 S14) S15))
 (= X11 (- S14 (* 3 S15)))
 (= X11 (+ (* 3 S14) (* 3 S15)))
 (= X11 (- (* 3 S14) (* 3 S15)))
 (= X11 (+ (* 3 S14) (* 97 S15)))
 (= X11 (- (* 3 S14) (* 97 S15)))
 (= X11 (- (* 97 S14) (* 3 S15)))
 (= X11 (+ (* 3 S14) (* 49 S15)))
 (= X11 (- (* 3 S14) (* 49 S15)))
 (= X11 (- (* 49 S14) (* 3 S15)))
 (= X11 (+ (* 3 S14) (* 735 S15)))
 (= X11 (- (* 3 S14) (* 735 S15)))
 (= X11 (- (* 735 S14) (* 3 S15)))
 (= X11 (+ (* 3 S14) (* X4 S15)))
 (= X11 (- (* 3 S14) (* X4 S15)))
 (= X11 (- (* X4 S14) (* 3 S15)))
 (= X11 (+ (* 3 S14) (* X5 S15)))
 (= X11 (- (* 3 S14) (* X5 S15)))
 (= X11 (- (* X5 S14) (* 3 S15)))
 (= X11 (+ (* 3 S14) (* X6 S15)))
 (= X11 (- (* 3 S14) (* X6 S15)))
 (= X11 (- (* X6 S14) (* 3 S15)))
 (= X11 (+ (* 3 S14) (* X7 S15)))
 (= X11 (- (* 3 S14) (* X7 S15)))
 (= X11 (- (* X7 S14) (* 3 S15)))
 (= X11 (+ (* 3 S14) (* X8 S15)))
 (= X11 (- (* 3 S14) (* X8 S15)))
 (= X11 (- (* X8 S14) (* 3 S15)))
 (= X11 (+ (* 3 S14) (* X9 S15)))
 (= X11 (- (* 3 S14) (* X9 S15)))
 (= X11 (- (* X9 S14) (* 3 S15)))
 (= X11 (+ (* 3 S14) (* X10 S15)))
 (= X11 (- (* 3 S14) (* X10 S15)))
 (= X11 (- (* X10 S14) (* 3 S15)))
 (= X11 (+ (* 97 S14) S15))
 (= X11 (- (* 97 S14) S15))
 (= X11 (- S14 (* 97 S15)))
 (= X11 (+ (* 97 S14) (* 97 S15)))
 (= X11 (- (* 97 S14) (* 97 S15)))
 (= X11 (+ (* 97 S14) (* 49 S15)))
 (= X11 (- (* 97 S14) (* 49 S15)))
 (= X11 (- (* 49 S14) (* 97 S15)))
 (= X11 (+ (* 97 S14) (* 735 S15)))
 (= X11 (- (* 97 S14) (* 735 S15)))
 (= X11 (- (* 735 S14) (* 97 S15)))
 (= X11 (+ (* 97 S14) (* X4 S15)))
 (= X11 (- (* 97 S14) (* X4 S15)))
 (= X11 (- (* X4 S14) (* 97 S15)))
 (= X11 (+ (* 97 S14) (* X5 S15)))
 (= X11 (- (* 97 S14) (* X5 S15)))
 (= X11 (- (* X5 S14) (* 97 S15)))
 (= X11 (+ (* 97 S14) (* X6 S15)))
 (= X11 (- (* 97 S14) (* X6 S15)))
 (= X11 (- (* X6 S14) (* 97 S15)))
 (= X11 (+ (* 97 S14) (* X7 S15)))
 (= X11 (- (* 97 S14) (* X7 S15)))
 (= X11 (- (* X7 S14) (* 97 S15)))
 (= X11 (+ (* 97 S14) (* X8 S15)))
 (= X11 (- (* 97 S14) (* X8 S15)))
 (= X11 (- (* X8 S14) (* 97 S15)))
 (= X11 (+ (* 97 S14) (* X9 S15)))
 (= X11 (- (* 97 S14) (* X9 S15)))
 (= X11 (- (* X9 S14) (* 97 S15)))
 (= X11 (+ (* 97 S14) (* X10 S15)))
 (= X11 (- (* 97 S14) (* X10 S15)))
 (= X11 (- (* X10 S14) (* 97 S15)))
 (= X11 (+ (* 49 S14) S15))
 (= X11 (- (* 49 S14) S15))
 (= X11 (- S14 (* 49 S15)))
 (= X11 (+ (* 49 S14) (* 49 S15)))
 (= X11 (- (* 49 S14) (* 49 S15)))
 (= X11 (+ (* 49 S14) (* 735 S15)))
 (= X11 (- (* 49 S14) (* 735 S15)))
 (= X11 (- (* 735 S14) (* 49 S15)))
 (= X11 (+ (* 49 S14) (* X4 S15)))
 (= X11 (- (* 49 S14) (* X4 S15)))
 (= X11 (- (* X4 S14) (* 49 S15)))
 (= X11 (+ (* 49 S14) (* X5 S15)))
 (= X11 (- (* 49 S14) (* X5 S15)))
 (= X11 (- (* X5 S14) (* 49 S15)))
 (= X11 (+ (* 49 S14) (* X6 S15)))
 (= X11 (- (* 49 S14) (* X6 S15)))
 (= X11 (- (* X6 S14) (* 49 S15)))
 (= X11 (+ (* 49 S14) (* X7 S15)))
 (= X11 (- (* 49 S14) (* X7 S15)))
 (= X11 (- (* X7 S14) (* 49 S15)))
 (= X11 (+ (* 49 S14) (* X8 S15)))
 (= X11 (- (* 49 S14) (* X8 S15)))
 (= X11 (- (* X8 S14) (* 49 S15)))
 (= X11 (+ (* 49 S14) (* X9 S15)))
 (= X11 (- (* 49 S14) (* X9 S15)))
 (= X11 (- (* X9 S14) (* 49 S15)))
 (= X11 (+ (* 49 S14) (* X10 S15)))
 (= X11 (- (* 49 S14) (* X10 S15)))
 (= X11 (- (* X10 S14) (* 49 S15)))
 (= X11 (+ (* 735 S14) S15))
 (= X11 (- (* 735 S14) S15))
 (= X11 (- S14 (* 735 S15)))
 (= X11 (+ (* 735 S14) (* 735 S15)))
 (= X11 (- (* 735 S14) (* 735 S15)))
 (= X11 (+ (* 735 S14) (* X4 S15)))
 (= X11 (- (* 735 S14) (* X4 S15)))
 (= X11 (- (* X4 S14) (* 735 S15)))
 (= X11 (+ (* 735 S14) (* X5 S15)))
 (= X11 (- (* 735 S14) (* X5 S15)))
 (= X11 (- (* X5 S14) (* 735 S15)))
 (= X11 (+ (* 735 S14) (* X6 S15)))
 (= X11 (- (* 735 S14) (* X6 S15)))
 (= X11 (- (* X6 S14) (* 735 S15)))
 (= X11 (+ (* 735 S14) (* X7 S15)))
 (= X11 (- (* 735 S14) (* X7 S15)))
 (= X11 (- (* X7 S14) (* 735 S15)))
 (= X11 (+ (* 735 S14) (* X8 S15)))
 (= X11 (- (* 735 S14) (* X8 S15)))
 (= X11 (- (* X8 S14) (* 735 S15)))
 (= X11 (+ (* 735 S14) (* X9 S15)))
 (= X11 (- (* 735 S14) (* X9 S15)))
 (= X11 (- (* X9 S14) (* 735 S15)))
 (= X11 (+ (* 735 S14) (* X10 S15)))
 (= X11 (- (* 735 S14) (* X10 S15)))
 (= X11 (- (* X10 S14) (* 735 S15)))
 (= X11 (+ (* X4 S14) S15))
 (= X11 (- (* X4 S14) S15))
 (= X11 (- S14 (* X4 S15)))
 (= X11 (+ (* X4 S14) (* X4 S15)))
 (= X11 (- (* X4 S14) (* X4 S15)))
 (= X11 (+ (* X4 S14) (* X5 S15)))
 (= X11 (- (* X4 S14) (* X5 S15)))
 (= X11 (- (* X5 S14) (* X4 S15)))
 (= X11 (+ (* X4 S14) (* X6 S15)))
 (= X11 (- (* X4 S14) (* X6 S15)))
 (= X11 (- (* X6 S14) (* X4 S15)))
 (= X11 (+ (* X4 S14) (* X7 S15)))
 (= X11 (- (* X4 S14) (* X7 S15)))
 (= X11 (- (* X7 S14) (* X4 S15)))
 (= X11 (+ (* X4 S14) (* X8 S15)))
 (= X11 (- (* X4 S14) (* X8 S15)))
 (= X11 (- (* X8 S14) (* X4 S15)))
 (= X11 (+ (* X4 S14) (* X9 S15)))
 (= X11 (- (* X4 S14) (* X9 S15)))
 (= X11 (- (* X9 S14) (* X4 S15)))
 (= X11 (+ (* X4 S14) (* X10 S15)))
 (= X11 (- (* X4 S14) (* X10 S15)))
 (= X11 (- (* X10 S14) (* X4 S15)))
 (= X11 (+ (* X5 S14) S15))
 (= X11 (- (* X5 S14) S15))
 (= X11 (- S14 (* X5 S15)))
 (= X11 (+ (* X5 S14) (* X5 S15)))
 (= X11 (- (* X5 S14) (* X5 S15)))
 (= X11 (+ (* X5 S14) (* X6 S15)))
 (= X11 (- (* X5 S14) (* X6 S15)))
 (= X11 (- (* X6 S14) (* X5 S15)))
 (= X11 (+ (* X5 S14) (* X7 S15)))
 (= X11 (- (* X5 S14) (* X7 S15)))
 (= X11 (- (* X7 S14) (* X5 S15)))
 (= X11 (+ (* X5 S14) (* X8 S15)))
 (= X11 (- (* X5 S14) (* X8 S15)))
 (= X11 (- (* X8 S14) (* X5 S15)))
 (= X11 (+ (* X5 S14) (* X9 S15)))
 (= X11 (- (* X5 S14) (* X9 S15)))
 (= X11 (- (* X9 S14) (* X5 S15)))
 (= X11 (+ (* X5 S14) (* X10 S15)))
 (= X11 (- (* X5 S14) (* X10 S15)))
 (= X11 (- (* X10 S14) (* X5 S15)))
 (= X11 (+ (* X6 S14) S15))
 (= X11 (- (* X6 S14) S15))
 (= X11 (- S14 (* X6 S15)))
 (= X11 (+ (* X6 S14) (* X6 S15)))
 (= X11 (- (* X6 S14) (* X6 S15)))
 (= X11 (+ (* X6 S14) (* X7 S15)))
 (= X11 (- (* X6 S14) (* X7 S15)))
 (= X11 (- (* X7 S14) (* X6 S15)))
 (= X11 (+ (* X6 S14) (* X8 S15)))
 (= X11 (- (* X6 S14) (* X8 S15)))
 (= X11 (- (* X8 S14) (* X6 S15)))
 (= X11 (+ (* X6 S14) (* X9 S15)))
 (= X11 (- (* X6 S14) (* X9 S15)))
 (= X11 (- (* X9 S14) (* X6 S15)))
 (= X11 (+ (* X6 S14) (* X10 S15)))
 (= X11 (- (* X6 S14) (* X10 S15)))
 (= X11 (- (* X10 S14) (* X6 S15)))
 (= X11 (+ (* X7 S14) S15))
 (= X11 (- (* X7 S14) S15))
 (= X11 (- S14 (* X7 S15)))
 (= X11 (+ (* X7 S14) (* X7 S15)))
 (= X11 (- (* X7 S14) (* X7 S15)))
 (= X11 (+ (* X7 S14) (* X8 S15)))
 (= X11 (- (* X7 S14) (* X8 S15)))
 (= X11 (- (* X8 S14) (* X7 S15)))
 (= X11 (+ (* X7 S14) (* X9 S15)))
 (= X11 (- (* X7 S14) (* X9 S15)))
 (= X11 (- (* X9 S14) (* X7 S15)))
 (= X11 (+ (* X7 S14) (* X10 S15)))
 (= X11 (- (* X7 S14) (* X10 S15)))
 (= X11 (- (* X10 S14) (* X7 S15)))
 (= X11 (+ (* X8 S14) S15))
 (= X11 (- (* X8 S14) S15))
 (= X11 (- S14 (* X8 S15)))
 (= X11 (+ (* X8 S14) (* X8 S15)))
 (= X11 (- (* X8 S14) (* X8 S15)))
 (= X11 (+ (* X8 S14) (* X9 S15)))
 (= X11 (- (* X8 S14) (* X9 S15)))
 (= X11 (- (* X9 S14) (* X8 S15)))
 (= X11 (+ (* X8 S14) (* X10 S15)))
 (= X11 (- (* X8 S14) (* X10 S15)))
 (= X11 (- (* X10 S14) (* X8 S15)))
 (= X11 (+ (* X9 S14) S15))
 (= X11 (- (* X9 S14) S15))
 (= X11 (- S14 (* X9 S15)))
 (= X11 (+ (* X9 S14) (* X9 S15)))
 (= X11 (- (* X9 S14) (* X9 S15)))
 (= X11 (+ (* X9 S14) (* X10 S15)))
 (= X11 (- (* X9 S14) (* X10 S15)))
 (= X11 (- (* X10 S14) (* X9 S15)))
 (= X11 (+ (* X10 S14) S15))
 (= X11 (- (* X10 S14) S15))
 (= X11 (- S14 (* X10 S15)))
 (= X11 (+ (* X10 S14) (* X10 S15)))
 (= X11 (- (* X10 S14) (* X10 S15)))
))
(assert (and (> X11 0) (< X11 4096) (power2 S14) (power2 S15)))
(assert (or
 (= X5 357)
 (= X6 357)
 (= X7 357)
 (= X8 357)
 (= X9 357)
 (= X10 357)
 (= X11 357)
))
(assert (or
 (= X5 1319)
 (= X6 1319)
 (= X7 1319)
 (= X8 1319)
 (= X9 1319)
 (= X10 1319)
 (= X11 1319)
))
(assert (or
 (= X5 1031)
 (= X6 1031)
 (= X7 1031)
 (= X8 1031)
 (= X9 1031)
 (= X10 1031)
 (= X11 1031)
))
(assert (or
 (= X5 2033)
 (= X6 2033)
 (= X7 2033)
 (= X8 2033)
 (= X9 2033)
 (= X10 2033)
 (= X11 2033)
))
(assert (or
 (= X5 705)
 (= X6 705)
 (= X7 705)
 (= X8 705)
 (= X9 705)
 (= X10 705)
 (= X11 705)
))
(assert (or
 (= X5 1731)
 (= X6 1731)
 (= X7 1731)
 (= X8 1731)
 (= X9 1731)
 (= X10 1731)
 (= X11 1731)
))
(check-sat)
(exit)
